
-94.84
-63.16
-45.44
-38.56
-27.76
-17.12
-16.96
-16.88
-16.76
-16.72
-16.44
-16.44
-16.04
-16.0
-16.0
-15.92
-15.92
-15.92
-15.8
-15.68
-4.56
-4.56
-4.56
-3.92
-3.2
-3.2
-2.56
-2.56
-1.92
-1.92
-1.92
-1.92
-1.92
-0.6
-0.6
-0.6
-0.6
-0.6
-0.6
-0.6